\ Model mip1
\ LP format - for model browsing. Use MPS format to capture full model detail.
Maximize
  7 C0 + 12 C1 + 12 C2 + 13 C3 + 14 C4 + 28 C5 + 29 C6 + 29 C7 + 30 C8
   + 32 C9 + 32 C10 + 34 C11 + 41 C12 + 45 C13 + 46 C14 + 56 C15 + 61 C16
   + 61 C17 + 62 C18 + 63 C19 + 65 C20 + 68 C21 + 76 C22 + 77 C23 + 77 C24
   + 92 C25 + 93 C26 + 94 C27 + 97 C28 + 103 C29 + 113 C30 + 114 C31
   + 114 C32 + 120 C33 + 135 C34 + 145 C35 + 145 C36 + 149 C37 + 156 C38
   + 157 C39 + 160 C40 + 169 C41 + 172 C42 + 179 C43 + 184 C44 + 185 C45
   + 189 C46 + 194 C47 + 195 C48 + 195 C49
Subject To
 Fette_massime: 7 C0 + 12 C1 + 12 C2 + 13 C3 + 14 C4 + 28 C5 + 29 C6
   + 29 C7 + 30 C8 + 32 C9 + 32 C10 + 34 C11 + 41 C12 + 45 C13 + 46 C14
   + 56 C15 + 61 C16 + 61 C17 + 62 C18 + 63 C19 + 65 C20 + 68 C21 + 76 C22
   + 77 C23 + 77 C24 + 92 C25 + 93 C26 + 94 C27 + 97 C28 + 103 C29
   + 113 C30 + 114 C31 + 114 C32 + 120 C33 + 135 C34 + 145 C35 + 145 C36
   + 149 C37 + 156 C38 + 157 C39 + 160 C40 + 169 C41 + 172 C42 + 179 C43
   + 184 C44 + 185 C45 + 189 C46 + 194 C47 + 195 C48 + 195 C49 <= 4500
Bounds
Binaries
 C0 C1 C2 C3 C4 C5 C6 C7 C8 C9 C10 C11 C12 C13 C14 C15 C16 C17 C18 C19 C20
 C21 C22 C23 C24 C25 C26 C27 C28 C29 C30 C31 C32 C33 C34 C35 C36 C37 C38
 C39 C40 C41 C42 C43 C44 C45 C46 C47 C48 C49
End
